p cnf 282 510               
-10 -9 -25 0
25 -27 0
9 10 -26 0
26 -27 0
27 -49 0
-12 -11 -28 0
28 -30 0
11 12 -29 0
29 -30 0
30 -49 0
-14 -13 -31 0
31 -33 0
13 14 -32 0
32 -33 0
33 -49 0
-16 -15 -34 0
34 -36 0
15 16 -35 0
35 -36 0
36 -49 0
-18 -17 -37 0
37 -39 0
17 18 -38 0
38 -39 0
39 -49 0
-20 -19 -40 0
40 -42 0
19 20 -41 0
41 -42 0
42 -49 0
-22 -21 -43 0
43 -45 0
21 22 -44 0
44 -45 0
45 -49 0
-24 -23 -46 0
46 -48 0
23 24 -47 0
47 -48 0
48 -49 0
49 -223 0
17 105 0
-21 105 0
-17 21 -105 0
18 106 0
-22 106 0
-18 22 -106 0
19 107 0
-23 107 0
-19 23 -107 0
20 108 0
-24 108 0
-20 24 -108 0
-105 -106 -107 -108 109 0
21 110 0
-17 110 0
22 111 0
-18 111 0
23 112 0
-19 112 0
24 113 0
-20 113 0
-110 -111 -112 -113 114 0
-109 -114 115 0
-115 -116 0
13 94 0
-21 94 0
14 95 0
-22 95 0
15 96 0
-23 96 0
16 97 0
-24 97 0
-94 -95 -96 -97 98 0
21 99 0
-13 99 0
22 100 0
-14 100 0
23 101 0
-15 101 0
24 102 0
-16 102 0
-99 -100 -101 -102 103 0
-98 -103 104 0
-104 -116 0
13 83 0
-17 83 0
-13 17 -83 0
14 84 0
-18 84 0
-14 18 -84 0
15 85 0
-19 85 0
-15 19 -85 0
16 86 0
-20 86 0
-16 20 -86 0
-83 -84 -85 -86 87 0
17 88 0
-13 88 0
18 89 0
-14 89 0
19 90 0
-15 90 0
20 91 0
-16 91 0
-88 -89 -90 -91 92 0
-87 -92 93 0
-93 -116 0
9 72 0
-21 72 0
10 73 0
-22 73 0
11 74 0
-23 74 0
12 75 0
-24 75 0
-72 -73 -74 -75 76 0
21 77 0
-9 77 0
22 78 0
-10 78 0
23 79 0
-11 79 0
24 80 0
-12 80 0
-77 -78 -79 -80 81 0
-76 -81 82 0
-82 -116 0
9 61 0
-17 61 0
10 62 0
-18 62 0
11 63 0
-19 63 0
12 64 0
-20 64 0
-61 -62 -63 -64 65 0
17 66 0
-9 66 0
18 67 0
-10 67 0
19 68 0
-11 68 0
20 69 0
-12 69 0
-66 -67 -68 -69 70 0
-65 -70 71 0
-71 -116 0
9 50 0
-13 50 0
-9 13 -50 0
10 51 0
-14 51 0
-10 14 -51 0
11 52 0
-15 52 0
-11 15 -52 0
12 53 0
-16 53 0
-12 16 -53 0
-50 -51 -52 -53 54 0
13 55 0
-9 55 0
14 56 0
-10 56 0
15 57 0
-11 57 0
16 58 0
-12 58 0
-55 -56 -57 -58 59 0
-54 -59 60 0
-60 -116 0
116 -223 0
-9 -117 0
10 -117 0
9 -10 117 0
-1 117 -118 0
1 -117 -118 0
117 -117 -118 0
118 -133 0
-11 -119 0
12 -119 0
11 -12 119 0
-2 119 -120 0
2 -119 -120 0
119 -119 -120 0
120 -133 0
-13 -121 0
14 -121 0
13 -14 121 0
-3 121 -122 0
3 -121 -122 0
121 -121 -122 0
122 -133 0
-15 -123 0
16 -123 0
15 -16 123 0
-4 123 -124 0
4 -123 -124 0
123 -123 -124 0
124 -133 0
-17 -125 0
18 -125 0
17 -18 125 0
-5 125 -126 0
5 -125 -126 0
125 -125 -126 0
126 -133 0
-19 -127 0
20 -127 0
19 -20 127 0
-6 127 -128 0
6 -127 -128 0
127 -127 -128 0
128 -133 0
-21 -129 0
22 -129 0
21 -22 129 0
-7 129 -130 0
7 -129 -130 0
129 -129 -130 0
130 -133 0
-23 -131 0
24 -131 0
23 -24 131 0
-8 131 -132 0
8 -131 -132 0
131 -131 -132 0
132 -133 0
133 -223 0
11 9 200 0
-10 -12 201 0
-200 -201 202 0
-2 -202 213 0
-213 221 0
15 13 203 0
-14 -16 204 0
-203 -204 205 0
-4 -205 215 0
-215 221 0
19 17 206 0
-18 -20 207 0
-206 -207 208 0
-6 -208 217 0
-217 221 0
23 21 209 0
-22 -24 210 0
-209 -210 211 0
-8 -211 219 0
-219 221 0
-1 -202 212 0
-212 220 0
-3 -205 214 0
-214 220 0
-5 -208 216 0
-216 220 0
-7 -211 218 0
-218 220 0
-12 -178 0
-9 -178 0
12 9 178 0
178 -180 0
10 -179 0
11 -179 0
-10 -11 179 0
179 -180 0
-178 -179 180 0
-1 -180 190 0
-190 198 0
-16 -181 0
-13 -181 0
16 13 181 0
181 -183 0
14 -182 0
15 -182 0
-14 -15 182 0
182 -183 0
-181 -182 183 0
-3 -183 192 0
-192 198 0
-20 -184 0
-17 -184 0
20 17 184 0
184 -186 0
18 -185 0
19 -185 0
-18 -19 185 0
185 -186 0
-184 -185 186 0
-5 -186 194 0
-194 198 0
-24 -187 0
-21 -187 0
24 21 187 0
187 -189 0
22 -188 0
23 -188 0
-22 -23 188 0
188 -189 0
-187 -188 189 0
-7 -189 196 0
-196 198 0
-11 -156 0
-10 -156 0
11 10 156 0
156 -158 0
9 -157 0
12 -157 0
-9 -12 157 0
157 -158 0
-156 -157 158 0
-2 -158 169 0
-169 177 0
-15 -159 0
-14 -159 0
15 14 159 0
159 -161 0
13 -160 0
16 -160 0
-13 -16 160 0
160 -161 0
-159 -160 161 0
-4 -161 171 0
-171 177 0
-19 -162 0
-18 -162 0
19 18 162 0
162 -164 0
17 -163 0
20 -163 0
-17 -20 163 0
163 -164 0
-162 -163 164 0
-6 -164 173 0
-173 177 0
-23 -165 0
-22 -165 0
23 22 165 0
165 -167 0
21 -166 0
24 -166 0
-21 -24 166 0
166 -167 0
-165 -166 167 0
-8 -167 175 0
-175 177 0
1 -146 0
-12 -134 0
-10 -134 0
134 -136 0
9 -135 0
11 -135 0
135 -136 0
136 -146 0
3 -148 0
-16 -137 0
-14 -137 0
137 -139 0
13 -138 0
15 -138 0
138 -139 0
139 -148 0
5 -150 0
-20 -140 0
-18 -140 0
140 -142 0
17 -141 0
19 -141 0
141 -142 0
142 -150 0
7 -152 0
-24 -143 0
-22 -143 0
143 -145 0
21 -144 0
23 -144 0
144 -145 0
145 -152 0
146 148 150 152 -154 0
2 -147 0
136 -147 0
4 -149 0
139 -149 0
6 -151 0
142 -151 0
8 -153 0
145 -153 0
147 149 151 153 -155 0
1 -168 0
158 -168 0
3 -170 0
161 -170 0
5 -172 0
164 -172 0
7 -174 0
167 -174 0
168 170 172 174 -176 0
2 -191 0
180 -191 0
4 -193 0
183 -193 0
6 -195 0
186 -195 0
8 -197 0
189 -197 0
191 193 195 197 -199 0
-221 -220 -198 -177 154 155 176 199 -222 0
222 -223 0
-1 3 -224 0
224 -242 0
-1 -3 225 0
1 3 225 0
-3 3 225 0
-2 4 -226 0
-225 226 -227 0
227 -242 0
-2 -4 228 0
2 4 228 0
-4 4 228 0
-225 -228 229 0
-229 50 -230 0
230 -242 0
-9 -13 231 0
9 13 231 0
-13 13 231 0
-229 -231 232 0
-232 51 -233 0
233 -242 0
-10 -14 234 0
10 14 234 0
-14 14 234 0
-232 -234 235 0
-235 52 -236 0
236 -242 0
-11 -15 237 0
11 15 237 0
-15 15 237 0
-235 -237 238 0
-238 53 -239 0
239 -242 0
242 -281 0
-3 5 -243 0
243 -261 0
-3 -5 244 0
3 5 244 0
-5 5 244 0
-4 6 -245 0
-244 245 -246 0
246 -261 0
-4 -6 247 0
4 6 247 0
-6 6 247 0
-244 -247 248 0
-248 83 -249 0
249 -261 0
-13 -17 250 0
13 17 250 0
-17 17 250 0
-248 -250 251 0
-251 84 -252 0
252 -261 0
-14 -18 253 0
14 18 253 0
-18 18 253 0
-251 -253 254 0
-254 85 -255 0
255 -261 0
-15 -19 256 0
15 19 256 0
-19 19 256 0
-254 -256 257 0
-257 86 -258 0
258 -261 0
261 -281 0
-5 7 -262 0
262 -280 0
-5 -7 263 0
5 7 263 0
-7 7 263 0
-6 8 -264 0
-263 264 -265 0
265 -280 0
-6 -8 266 0
6 8 266 0
-8 8 266 0
-263 -266 267 0
-267 105 -268 0
268 -280 0
-17 -21 269 0
17 21 269 0
-21 21 269 0
-267 -269 270 0
-270 106 -271 0
271 -280 0
-18 -22 272 0
18 22 272 0
-22 22 272 0
-270 -272 273 0
-273 107 -274 0
274 -280 0
-19 -23 275 0
19 23 275 0
-23 23 275 0
-273 -275 276 0
-276 108 -277 0
277 -280 0
280 -281 0
223 0
281 0
